c Source: TUDataset PTC_MR, graph #311
c Original: n=11, m=13
c Augmented: +2 edges, n=11 -> m=15, circuit_rank=5
c Augmented to satisfy Eulerian condition (no parallel edges)
p sp 11
e 7 8
e 1 3
e 9 10
e 1 6
e 1 2
e 1 9
e 6 8
e 3 5
e 4 5
e 6 7
e 10 11
e 9 11
e 3 4
e 2 9
e 3 6
